unsat
(define-fun f ((x (_ BitVec 64))) (_ BitVec 64) (if0 (bvand #b0000000000000000000000000000000000000000000000000000000000000001 (bvnot x)) (if0 (bvand #b0000000000000000000000000000000000000000000000000000000000000001 (shr4 x)) (bvor #b0000000000000000000000000000000000000000000000000000000000000001 x) x) (bvadd x (shr4 (shr1 x)))))
0.70user 0.03system 0:00.73elapsed 100%CPU (0avgtext+0avgdata 53216maxresident)k
0inputs+8outputs (0major+7985minor)pagefaults 0swaps
